p edge 3477 3397
e 1 2
e 1 3
e 1 4
e 1 5
e 1 6
e 1 7
e 1 8
e 1 9
e 1 10
e 1 11
e 1 12
e 1 13
e 1 14
e 1 15
e 1 16
e 1 17
e 1 18
e 1 19
e 1 20
e 1 21
e 1 22
e 1 23
e 1 24
e 1 25
e 1 26
e 1 27
e 1 28
e 1 29
e 1 30
e 1 31
e 1 32
e 1 33
e 1 34
e 1 35
e 1 36
e 1 37
e 1 38
e 1 39
e 1 40
e 1 41
e 1 42
e 1 43
e 1 44
e 1 45
e 46 47
e 46 48
e 46 49
e 46 50
e 46 51
e 46 52
e 46 53
e 46 54
e 46 55
e 46 56
e 46 57
e 46 58
e 46 59
e 46 60
e 46 61
e 46 62
e 46 63
e 46 64
e 46 65
e 46 66
e 46 67
e 46 68
e 46 69
e 46 70
e 46 71
e 46 72
e 46 73
e 46 74
e 46 75
e 46 76
e 46 77
e 46 78
e 46 79
e 46 80
e 46 81
e 46 82
e 46 83
e 46 84
e 46 85
e 46 86
e 46 87
e 46 88
e 46 89
e 46 90
e 46 91
e 46 92
e 46 93
e 46 94
e 46 95
e 46 96
e 46 97
e 46 98
e 46 99
e 46 100
e 46 101
e 46 102
e 46 103
e 46 104
e 46 105
e 46 106
e 46 107
e 46 108
e 46 109
e 46 110
e 111 112
e 111 113
e 111 114
e 111 115
e 111 116
e 111 117
e 111 118
e 111 119
e 111 120
e 111 121
e 111 122
e 111 123
e 111 124
e 111 125
e 111 126
e 111 127
e 111 128
e 111 129
e 111 130
e 111 131
e 111 132
e 111 133
e 111 134
e 111 135
e 111 136
e 111 137
e 111 138
e 111 139
e 111 140
e 111 141
e 111 142
e 111 143
e 111 144
e 111 145
e 111 146
e 111 147
e 111 148
e 111 149
e 111 150
e 111 151
e 111 152
e 111 153
e 111 154
e 111 155
e 111 156
e 111 157
e 111 158
e 111 159
e 111 160
e 111 161
e 111 162
e 111 163
e 111 164
e 111 165
e 166 167
e 166 168
e 166 169
e 166 170
e 166 171
e 166 172
e 166 173
e 166 174
e 166 175
e 166 176
e 166 177
e 166 178
e 166 179
e 166 180
e 166 181
e 166 182
e 166 183
e 166 184
e 166 185
e 166 186
e 166 187
e 166 188
e 166 189
e 166 190
e 166 191
e 166 192
e 166 193
e 166 194
e 166 195
e 166 196
e 166 197
e 166 198
e 166 199
e 166 200
e 166 201
e 166 202
e 166 203
e 166 204
e 166 205
e 166 206
e 166 207
e 166 208
e 166 209
e 166 210
e 166 211
e 166 212
e 166 213
e 166 214
e 166 215
e 166 216
e 166 217
e 166 218
e 166 219
e 166 220
e 166 221
e 166 222
e 166 223
e 166 224
e 166 225
e 166 226
e 166 227
e 166 228
e 166 229
e 230 231
e 230 232
e 230 233
e 230 234
e 230 235
e 230 236
e 230 237
e 230 238
e 230 239
e 230 240
e 230 241
e 230 242
e 230 243
e 230 244
e 230 245
e 230 246
e 230 247
e 230 248
e 230 249
e 230 250
e 230 251
e 230 252
e 230 253
e 230 254
e 230 255
e 230 256
e 230 257
e 230 258
e 230 259
e 230 260
e 230 261
e 230 262
e 230 263
e 230 264
e 230 265
e 230 266
e 230 267
e 230 268
e 230 269
e 230 270
e 230 271
e 230 272
e 230 273
e 230 274
e 230 275
e 230 276
e 230 277
e 230 278
e 230 279
e 230 280
e 230 281
e 230 282
e 283 284
e 283 285
e 283 286
e 283 287
e 283 288
e 283 289
e 283 290
e 283 291
e 283 292
e 283 293
e 283 294
e 283 295
e 283 296
e 283 297
e 283 298
e 299 300
e 299 301
e 299 302
e 299 303
e 299 304
e 299 305
e 299 306
e 299 307
e 299 308
e 299 309
e 299 310
e 299 311
e 299 312
e 299 313
e 299 314
e 299 315
e 299 316
e 299 317
e 299 318
e 299 319
e 299 320
e 299 321
e 299 322
e 299 323
e 299 324
e 299 325
e 299 326
e 299 327
e 299 328
e 299 329
e 299 330
e 299 331
e 299 332
e 299 333
e 299 334
e 299 335
e 299 336
e 299 337
e 299 338
e 299 339
e 299 340
e 299 341
e 299 342
e 299 343
e 299 344
e 299 345
e 299 346
e 299 347
e 299 348
e 299 349
e 299 350
e 299 351
e 299 352
e 299 353
e 299 354
e 299 355
e 299 356
e 299 357
e 299 358
e 299 359
e 299 360
e 299 361
e 299 362
e 299 363
e 299 364
e 299 365
e 299 366
e 299 367
e 299 368
e 299 369
e 370 371
e 370 372
e 370 373
e 370 374
e 370 375
e 370 376
e 370 377
e 370 378
e 370 379
e 370 380
e 370 381
e 370 382
e 370 383
e 370 384
e 370 385
e 370 386
e 370 387
e 370 388
e 370 389
e 370 390
e 370 391
e 370 392
e 370 393
e 370 394
e 370 395
e 370 396
e 370 397
e 370 398
e 370 399
e 370 400
e 370 401
e 370 402
e 370 403
e 370 404
e 370 405
e 370 406
e 370 407
e 370 408
e 370 409
e 370 410
e 370 411
e 370 412
e 370 413
e 370 414
e 370 415
e 370 416
e 370 417
e 370 418
e 419 420
e 419 421
e 419 422
e 419 423
e 419 424
e 419 425
e 419 426
e 419 427
e 419 428
e 419 429
e 419 430
e 419 431
e 419 432
e 419 433
e 419 434
e 419 435
e 419 436
e 419 437
e 419 438
e 419 439
e 419 440
e 419 441
e 419 442
e 419 443
e 419 444
e 419 445
e 419 446
e 419 447
e 419 448
e 419 449
e 419 450
e 419 451
e 419 452
e 419 453
e 419 454
e 419 455
e 419 456
e 419 457
e 419 458
e 419 459
e 419 460
e 419 461
e 419 462
e 419 463
e 419 464
e 419 465
e 419 466
e 419 467
e 419 468
e 419 469
e 419 470
e 419 471
e 419 472
e 419 473
e 419 474
e 419 475
e 476 477
e 476 478
e 476 479
e 476 480
e 476 481
e 476 482
e 476 483
e 476 484
e 476 485
e 476 486
e 476 487
e 476 488
e 476 489
e 476 490
e 476 491
e 476 492
e 476 493
e 476 494
e 476 495
e 476 496
e 476 497
e 476 498
e 476 499
e 476 500
e 501 502
e 501 503
e 501 504
e 501 505
e 501 506
e 501 507
e 501 508
e 501 509
e 501 510
e 501 511
e 501 512
e 501 513
e 501 514
e 501 515
e 501 516
e 501 517
e 501 518
e 501 519
e 501 520
e 501 521
e 501 522
e 523 524
e 523 525
e 523 526
e 523 527
e 523 528
e 523 529
e 523 530
e 523 531
e 523 532
e 523 533
e 523 534
e 523 535
e 523 536
e 523 537
e 523 538
e 523 539
e 523 540
e 523 541
e 523 542
e 523 543
e 523 544
e 523 545
e 523 546
e 523 547
e 523 548
e 523 549
e 523 550
e 523 551
e 523 552
e 523 553
e 523 554
e 523 555
e 523 556
e 523 557
e 523 558
e 523 559
e 523 560
e 523 561
e 523 562
e 523 563
e 523 564
e 523 565
e 523 566
e 523 567
e 523 568
e 523 569
e 523 570
e 523 571
e 523 572
e 523 573
e 523 574
e 575 576
e 575 577
e 575 578
e 575 579
e 575 580
e 575 581
e 575 582
e 575 583
e 575 584
e 575 585
e 575 586
e 575 587
e 575 588
e 575 589
e 575 590
e 575 591
e 575 592
e 575 593
e 575 594
e 575 595
e 575 596
e 575 597
e 575 598
e 575 599
e 575 600
e 575 601
e 575 602
e 575 603
e 575 604
e 575 605
e 575 606
e 575 607
e 575 608
e 575 609
e 575 610
e 575 611
e 575 612
e 575 613
e 575 614
e 575 615
e 575 616
e 575 617
e 575 618
e 575 619
e 575 620
e 575 621
e 575 622
e 575 623
e 575 624
e 575 625
e 575 626
e 575 627
e 575 628
e 575 629
e 575 630
e 575 631
e 575 632
e 633 634
e 633 635
e 633 636
e 633 637
e 633 638
e 633 639
e 633 640
e 633 641
e 633 642
e 633 643
e 633 644
e 633 645
e 633 646
e 633 647
e 633 648
e 633 649
e 633 650
e 633 651
e 633 652
e 633 653
e 633 654
e 633 655
e 633 656
e 633 657
e 633 658
e 633 659
e 633 660
e 633 661
e 633 662
e 633 663
e 664 665
e 664 666
e 664 667
e 664 668
e 664 669
e 664 670
e 664 671
e 664 672
e 664 673
e 664 674
e 664 675
e 664 676
e 664 677
e 664 678
e 664 679
e 664 680
e 664 681
e 664 682
e 664 683
e 664 684
e 664 685
e 664 686
e 664 687
e 664 688
e 664 689
e 664 690
e 664 691
e 664 692
e 664 693
e 664 694
e 664 695
e 664 696
e 664 697
e 664 698
e 664 699
e 664 700
e 664 701
e 664 702
e 664 703
e 664 704
e 664 705
e 664 706
e 664 707
e 664 708
e 664 709
e 664 710
e 664 711
e 664 712
e 664 713
e 664 714
e 664 715
e 664 716
e 664 717
e 664 718
e 719 720
e 719 721
e 719 722
e 719 723
e 719 724
e 719 725
e 719 726
e 719 727
e 719 728
e 719 729
e 719 730
e 719 731
e 719 732
e 719 733
e 719 734
e 719 735
e 719 736
e 719 737
e 719 738
e 719 739
e 719 740
e 719 741
e 719 742
e 719 743
e 744 745
e 744 746
e 744 747
e 744 748
e 744 749
e 744 750
e 744 751
e 744 752
e 744 753
e 744 754
e 744 755
e 744 756
e 744 757
e 744 758
e 744 759
e 744 760
e 744 761
e 744 762
e 744 763
e 744 764
e 744 765
e 744 766
e 744 767
e 744 768
e 769 770
e 769 771
e 769 772
e 769 773
e 769 774
e 769 775
e 769 776
e 769 777
e 769 778
e 769 779
e 769 780
e 769 781
e 769 782
e 769 783
e 769 784
e 769 785
e 769 786
e 769 787
e 769 788
e 769 789
e 769 790
e 769 791
e 769 792
e 769 793
e 769 794
e 769 795
e 769 796
e 769 797
e 769 798
e 769 799
e 769 800
e 769 801
e 769 802
e 769 803
e 769 804
e 769 805
e 769 806
e 769 807
e 769 808
e 769 809
e 769 810
e 769 811
e 769 812
e 769 813
e 769 814
e 769 815
e 769 816
e 769 817
e 769 818
e 769 819
e 769 820
e 769 821
e 769 822
e 769 823
e 769 824
e 769 825
e 769 826
e 769 827
e 769 828
e 769 829
e 769 830
e 769 831
e 769 832
e 833 834
e 833 835
e 833 836
e 833 837
e 833 838
e 833 839
e 833 840
e 833 841
e 833 842
e 833 843
e 833 844
e 833 845
e 833 846
e 833 847
e 833 848
e 849 850
e 849 851
e 849 852
e 849 853
e 849 854
e 849 855
e 849 856
e 849 857
e 849 858
e 849 859
e 849 860
e 849 861
e 849 862
e 849 863
e 849 864
e 849 865
e 849 866
e 849 867
e 849 868
e 849 869
e 849 870
e 849 871
e 849 872
e 849 873
e 849 874
e 849 875
e 849 876
e 849 877
e 849 878
e 849 879
e 849 880
e 849 881
e 849 882
e 849 883
e 849 884
e 849 885
e 849 886
e 849 887
e 849 888
e 849 889
e 849 890
e 849 891
e 849 892
e 849 893
e 849 894
e 849 895
e 849 896
e 849 897
e 849 898
e 849 899
e 849 900
e 849 901
e 849 902
e 849 903
e 849 904
e 849 905
e 849 906
e 849 907
e 849 908
e 849 909
e 849 910
e 911 912
e 911 913
e 911 914
e 911 915
e 911 916
e 911 917
e 911 918
e 911 919
e 911 920
e 911 921
e 911 922
e 911 923
e 911 924
e 911 925
e 911 926
e 911 927
e 928 929
e 928 930
e 928 931
e 928 932
e 928 933
e 928 934
e 928 935
e 928 936
e 928 937
e 928 938
e 928 939
e 928 940
e 928 941
e 928 942
e 928 943
e 928 944
e 945 946
e 945 947
e 945 948
e 945 949
e 945 950
e 945 951
e 945 952
e 945 953
e 945 954
e 945 955
e 945 956
e 945 957
e 945 958
e 945 959
e 945 960
e 945 961
e 945 962
e 945 963
e 945 964
e 945 965
e 945 966
e 945 967
e 945 968
e 945 969
e 945 970
e 945 971
e 945 972
e 945 973
e 945 974
e 945 975
e 945 976
e 945 977
e 945 978
e 945 979
e 945 980
e 945 981
e 945 982
e 945 983
e 945 984
e 945 985
e 945 986
e 945 987
e 945 988
e 945 989
e 945 990
e 945 991
e 945 992
e 993 994
e 993 995
e 993 996
e 993 997
e 993 998
e 993 999
e 993 1000
e 993 1001
e 993 1002
e 993 1003
e 993 1004
e 993 1005
e 993 1006
e 993 1007
e 993 1008
e 993 1009
e 993 1010
e 993 1011
e 993 1012
e 993 1013
e 993 1014
e 993 1015
e 993 1016
e 993 1017
e 993 1018
e 993 1019
e 993 1020
e 993 1021
e 993 1022
e 993 1023
e 993 1024
e 993 1025
e 993 1026
e 993 1027
e 993 1028
e 993 1029
e 993 1030
e 993 1031
e 993 1032
e 993 1033
e 993 1034
e 993 1035
e 993 1036
e 993 1037
e 993 1038
e 993 1039
e 993 1040
e 993 1041
e 993 1042
e 993 1043
e 993 1044
e 993 1045
e 993 1046
e 993 1047
e 993 1048
e 993 1049
e 993 1050
e 1051 1052
e 1051 1053
e 1051 1054
e 1051 1055
e 1051 1056
e 1051 1057
e 1051 1058
e 1051 1059
e 1051 1060
e 1051 1061
e 1051 1062
e 1051 1063
e 1051 1064
e 1051 1065
e 1051 1066
e 1051 1067
e 1051 1068
e 1051 1069
e 1051 1070
e 1051 1071
e 1051 1072
e 1051 1073
e 1051 1074
e 1051 1075
e 1051 1076
e 1051 1077
e 1051 1078
e 1051 1079
e 1051 1080
e 1051 1081
e 1051 1082
e 1051 1083
e 1051 1084
e 1051 1085
e 1051 1086
e 1051 1087
e 1051 1088
e 1051 1089
e 1051 1090
e 1091 1092
e 1091 1093
e 1091 1094
e 1091 1095
e 1091 1096
e 1091 1097
e 1091 1098
e 1091 1099
e 1091 1100
e 1091 1101
e 1091 1102
e 1091 1103
e 1091 1104
e 1091 1105
e 1091 1106
e 1091 1107
e 1091 1108
e 1091 1109
e 1091 1110
e 1091 1111
e 1091 1112
e 1091 1113
e 1091 1114
e 1091 1115
e 1091 1116
e 1091 1117
e 1091 1118
e 1091 1119
e 1091 1120
e 1091 1121
e 1091 1122
e 1091 1123
e 1091 1124
e 1091 1125
e 1091 1126
e 1091 1127
e 1091 1128
e 1091 1129
e 1091 1130
e 1091 1131
e 1091 1132
e 1091 1133
e 1091 1134
e 1091 1135
e 1091 1136
e 1091 1137
e 1091 1138
e 1091 1139
e 1091 1140
e 1091 1141
e 1091 1142
e 1091 1143
e 1091 1144
e 1091 1145
e 1091 1146
e 1091 1147
e 1091 1148
e 1091 1149
e 1091 1150
e 1091 1151
e 1091 1152
e 1091 1153
e 1091 1154
e 1091 1155
e 1091 1156
e 1091 1157
e 1158 1159
e 1158 1160
e 1158 1161
e 1158 1162
e 1158 1163
e 1158 1164
e 1158 1165
e 1158 1166
e 1158 1167
e 1158 1168
e 1158 1169
e 1158 1170
e 1158 1171
e 1158 1172
e 1158 1173
e 1158 1174
e 1158 1175
e 1158 1176
e 1158 1177
e 1158 1178
e 1158 1179
e 1158 1180
e 1158 1181
e 1158 1182
e 1158 1183
e 1158 1184
e 1158 1185
e 1158 1186
e 1158 1187
e 1158 1188
e 1158 1189
e 1158 1190
e 1158 1191
e 1158 1192
e 1158 1193
e 1158 1194
e 1158 1195
e 1158 1196
e 1158 1197
e 1158 1198
e 1158 1199
e 1158 1200
e 1201 1202
e 1201 1203
e 1201 1204
e 1201 1205
e 1201 1206
e 1201 1207
e 1201 1208
e 1201 1209
e 1201 1210
e 1201 1211
e 1201 1212
e 1201 1213
e 1201 1214
e 1201 1215
e 1201 1216
e 1201 1217
e 1201 1218
e 1201 1219
e 1201 1220
e 1201 1221
e 1201 1222
e 1201 1223
e 1201 1224
e 1201 1225
e 1201 1226
e 1201 1227
e 1201 1228
e 1201 1229
e 1201 1230
e 1201 1231
e 1201 1232
e 1201 1233
e 1201 1234
e 1201 1235
e 1201 1236
e 1201 1237
e 1201 1238
e 1239 1240
e 1239 1241
e 1239 1242
e 1239 1243
e 1239 1244
e 1239 1245
e 1239 1246
e 1239 1247
e 1239 1248
e 1239 1249
e 1239 1250
e 1239 1251
e 1239 1252
e 1239 1253
e 1239 1254
e 1239 1255
e 1239 1256
e 1239 1257
e 1239 1258
e 1239 1259
e 1239 1260
e 1261 1262
e 1261 1263
e 1261 1264
e 1261 1265
e 1261 1266
e 1261 1267
e 1261 1268
e 1261 1269
e 1261 1270
e 1261 1271
e 1261 1272
e 1261 1273
e 1261 1274
e 1261 1275
e 1261 1276
e 1261 1277
e 1261 1278
e 1261 1279
e 1261 1280
e 1261 1281
e 1261 1282
e 1261 1283
e 1261 1284
e 1261 1285
e 1261 1286
e 1261 1287
e 1261 1288
e 1261 1289
e 1261 1290
e 1261 1291
e 1261 1292
e 1261 1293
e 1261 1294
e 1261 1295
e 1261 1296
e 1261 1297
e 1261 1298
e 1261 1299
e 1261 1300
e 1261 1301
e 1261 1302
e 1261 1303
e 1261 1304
e 1261 1305
e 1261 1306
e 1261 1307
e 1261 1308
e 1261 1309
e 1261 1310
e 1261 1311
e 1261 1312
e 1261 1313
e 1261 1314
e 1261 1315
e 1261 1316
e 1261 1317
e 1261 1318
e 1261 1319
e 1261 1320
e 1261 1321
e 1261 1322
e 1261 1323
e 1261 1324
e 1261 1325
e 1326 1327
e 1326 1328
e 1326 1329
e 1326 1330
e 1326 1331
e 1326 1332
e 1326 1333
e 1326 1334
e 1326 1335
e 1326 1336
e 1326 1337
e 1326 1338
e 1326 1339
e 1326 1340
e 1326 1341
e 1326 1342
e 1326 1343
e 1326 1344
e 1326 1345
e 1326 1346
e 1326 1347
e 1326 1348
e 1326 1349
e 1326 1350
e 1326 1351
e 1326 1352
e 1326 1353
e 1326 1354
e 1326 1355
e 1326 1356
e 1326 1357
e 1326 1358
e 1326 1359
e 1326 1360
e 1326 1361
e 1326 1362
e 1326 1363
e 1326 1364
e 1326 1365
e 1326 1366
e 1326 1367
e 1326 1368
e 1326 1369
e 1326 1370
e 1326 1371
e 1326 1372
e 1326 1373
e 1326 1374
e 1326 1375
e 1326 1376
e 1326 1377
e 1326 1378
e 1326 1379
e 1326 1380
e 1326 1381
e 1326 1382
e 1383 1384
e 1383 1385
e 1383 1386
e 1383 1387
e 1383 1388
e 1383 1389
e 1383 1390
e 1383 1391
e 1383 1392
e 1383 1393
e 1383 1394
e 1383 1395
e 1383 1396
e 1383 1397
e 1383 1398
e 1383 1399
e 1383 1400
e 1383 1401
e 1383 1402
e 1383 1403
e 1383 1404
e 1383 1405
e 1383 1406
e 1383 1407
e 1383 1408
e 1383 1409
e 1383 1410
e 1383 1411
e 1383 1412
e 1383 1413
e 1383 1414
e 1383 1415
e 1383 1416
e 1383 1417
e 1383 1418
e 1383 1419
e 1383 1420
e 1383 1421
e 1383 1422
e 1383 1423
e 1383 1424
e 1383 1425
e 1383 1426
e 1383 1427
e 1383 1428
e 1383 1429
e 1383 1430
e 1383 1431
e 1383 1432
e 1383 1433
e 1383 1434
e 1383 1435
e 1383 1436
e 1383 1437
e 1383 1438
e 1383 1439
e 1383 1440
e 1383 1441
e 1383 1442
e 1383 1443
e 1383 1444
e 1445 1446
e 1445 1447
e 1445 1448
e 1445 1449
e 1445 1450
e 1445 1451
e 1445 1452
e 1445 1453
e 1445 1454
e 1445 1455
e 1445 1456
e 1445 1457
e 1445 1458
e 1445 1459
e 1445 1460
e 1445 1461
e 1445 1462
e 1445 1463
e 1445 1464
e 1445 1465
e 1445 1466
e 1445 1467
e 1445 1468
e 1445 1469
e 1470 1471
e 1470 1472
e 1470 1473
e 1470 1474
e 1470 1475
e 1470 1476
e 1470 1477
e 1470 1478
e 1470 1479
e 1470 1480
e 1470 1481
e 1470 1482
e 1470 1483
e 1470 1484
e 1470 1485
e 1470 1486
e 1470 1487
e 1470 1488
e 1470 1489
e 1470 1490
e 1470 1491
e 1470 1492
e 1470 1493
e 1470 1494
e 1470 1495
e 1470 1496
e 1470 1497
e 1470 1498
e 1470 1499
e 1470 1500
e 1470 1501
e 1470 1502
e 1470 1503
e 1470 1504
e 1470 1505
e 1470 1506
e 1470 1507
e 1470 1508
e 1470 1509
e 1470 1510
e 1470 1511
e 1470 1512
e 1470 1513
e 1470 1514
e 1470 1515
e 1470 1516
e 1470 1517
e 1470 1518
e 1470 1519
e 1470 1520
e 1470 1521
e 1470 1522
e 1470 1523
e 1470 1524
e 1470 1525
e 1470 1526
e 1470 1527
e 1470 1528
e 1470 1529
e 1470 1530
e 1470 1531
e 1470 1532
e 1470 1533
e 1470 1534
e 1470 1535
e 1470 1536
e 1470 1537
e 1470 1538
e 1539 1540
e 1539 1541
e 1539 1542
e 1539 1543
e 1539 1544
e 1539 1545
e 1539 1546
e 1539 1547
e 1539 1548
e 1539 1549
e 1539 1550
e 1539 1551
e 1539 1552
e 1539 1553
e 1539 1554
e 1539 1555
e 1539 1556
e 1539 1557
e 1539 1558
e 1539 1559
e 1539 1560
e 1539 1561
e 1539 1562
e 1539 1563
e 1539 1564
e 1539 1565
e 1539 1566
e 1539 1567
e 1539 1568
e 1539 1569
e 1539 1570
e 1539 1571
e 1539 1572
e 1539 1573
e 1539 1574
e 1539 1575
e 1539 1576
e 1539 1577
e 1539 1578
e 1539 1579
e 1539 1580
e 1539 1581
e 1539 1582
e 1539 1583
e 1539 1584
e 1585 1586
e 1585 1587
e 1585 1588
e 1585 1589
e 1585 1590
e 1585 1591
e 1585 1592
e 1585 1593
e 1585 1594
e 1585 1595
e 1585 1596
e 1585 1597
e 1585 1598
e 1585 1599
e 1585 1600
e 1585 1601
e 1585 1602
e 1585 1603
e 1585 1604
e 1585 1605
e 1585 1606
e 1585 1607
e 1585 1608
e 1585 1609
e 1585 1610
e 1585 1611
e 1585 1612
e 1585 1613
e 1585 1614
e 1585 1615
e 1585 1616
e 1585 1617
e 1585 1618
e 1585 1619
e 1585 1620
e 1585 1621
e 1585 1622
e 1585 1623
e 1585 1624
e 1585 1625
e 1585 1626
e 1585 1627
e 1585 1628
e 1585 1629
e 1585 1630
e 1585 1631
e 1585 1632
e 1585 1633
e 1585 1634
e 1585 1635
e 1585 1636
e 1585 1637
e 1585 1638
e 1585 1639
e 1585 1640
e 1585 1641
e 1585 1642
e 1585 1643
e 1585 1644
e 1585 1645
e 1585 1646
e 1585 1647
e 1585 1648
e 1649 1650
e 1649 1651
e 1649 1652
e 1649 1653
e 1649 1654
e 1649 1655
e 1649 1656
e 1649 1657
e 1649 1658
e 1649 1659
e 1649 1660
e 1649 1661
e 1649 1662
e 1649 1663
e 1649 1664
e 1649 1665
e 1649 1666
e 1649 1667
e 1649 1668
e 1649 1669
e 1649 1670
e 1649 1671
e 1649 1672
e 1649 1673
e 1649 1674
e 1649 1675
e 1649 1676
e 1649 1677
e 1649 1678
e 1649 1679
e 1649 1680
e 1649 1681
e 1649 1682
e 1649 1683
e 1649 1684
e 1649 1685
e 1649 1686
e 1649 1687
e 1649 1688
e 1649 1689
e 1649 1690
e 1649 1691
e 1649 1692
e 1649 1693
e 1649 1694
e 1649 1695
e 1649 1696
e 1649 1697
e 1649 1698
e 1649 1699
e 1649 1700
e 1649 1701
e 1649 1702
e 1649 1703
e 1649 1704
e 1649 1705
e 1649 1706
e 1707 1708
e 1707 1709
e 1707 1710
e 1707 1711
e 1707 1712
e 1707 1713
e 1707 1714
e 1707 1715
e 1707 1716
e 1707 1717
e 1707 1718
e 1707 1719
e 1707 1720
e 1707 1721
e 1707 1722
e 1707 1723
e 1707 1724
e 1707 1725
e 1707 1726
e 1707 1727
e 1707 1728
e 1707 1729
e 1707 1730
e 1707 1731
e 1707 1732
e 1707 1733
e 1707 1734
e 1707 1735
e 1707 1736
e 1707 1737
e 1707 1738
e 1707 1739
e 1707 1740
e 1707 1741
e 1707 1742
e 1707 1743
e 1707 1744
e 1707 1745
e 1707 1746
e 1707 1747
e 1707 1748
e 1707 1749
e 1707 1750
e 1707 1751
e 1707 1752
e 1707 1753
e 1707 1754
e 1707 1755
e 1707 1756
e 1707 1757
e 1707 1758
e 1707 1759
e 1707 1760
e 1707 1761
e 1707 1762
e 1707 1763
e 1707 1764
e 1707 1765
e 1707 1766
e 1707 1767
e 1707 1768
e 1707 1769
e 1707 1770
e 1771 1772
e 1771 1773
e 1771 1774
e 1771 1775
e 1771 1776
e 1771 1777
e 1771 1778
e 1771 1779
e 1771 1780
e 1771 1781
e 1771 1782
e 1771 1783
e 1771 1784
e 1771 1785
e 1771 1786
e 1771 1787
e 1771 1788
e 1771 1789
e 1771 1790
e 1771 1791
e 1771 1792
e 1771 1793
e 1771 1794
e 1771 1795
e 1771 1796
e 1771 1797
e 1771 1798
e 1771 1799
e 1771 1800
e 1771 1801
e 1771 1802
e 1771 1803
e 1771 1804
e 1771 1805
e 1771 1806
e 1771 1807
e 1771 1808
e 1771 1809
e 1771 1810
e 1771 1811
e 1771 1812
e 1771 1813
e 1771 1814
e 1771 1815
e 1771 1816
e 1771 1817
e 1771 1818
e 1771 1819
e 1771 1820
e 1771 1821
e 1771 1822
e 1771 1823
e 1771 1824
e 1771 1825
e 1771 1826
e 1771 1827
e 1771 1828
e 1771 1829
e 1771 1830
e 1771 1831
e 1771 1832
e 1771 1833
e 1771 1834
e 1771 1835
e 1771 1836
e 1771 1837
e 1838 1839
e 1838 1840
e 1838 1841
e 1838 1842
e 1838 1843
e 1838 1844
e 1838 1845
e 1838 1846
e 1838 1847
e 1838 1848
e 1849 1850
e 1849 1851
e 1849 1852
e 1849 1853
e 1849 1854
e 1849 1855
e 1849 1856
e 1849 1857
e 1849 1858
e 1849 1859
e 1849 1860
e 1849 1861
e 1849 1862
e 1849 1863
e 1849 1864
e 1849 1865
e 1849 1866
e 1849 1867
e 1849 1868
e 1849 1869
e 1849 1870
e 1849 1871
e 1849 1872
e 1849 1873
e 1849 1874
e 1849 1875
e 1849 1876
e 1849 1877
e 1849 1878
e 1849 1879
e 1849 1880
e 1849 1881
e 1849 1882
e 1849 1883
e 1849 1884
e 1849 1885
e 1849 1886
e 1849 1887
e 1849 1888
e 1849 1889
e 1849 1890
e 1849 1891
e 1849 1892
e 1849 1893
e 1849 1894
e 1849 1895
e 1849 1896
e 1849 1897
e 1849 1898
e 1849 1899
e 1849 1900
e 1849 1901
e 1849 1902
e 1849 1903
e 1849 1904
e 1849 1905
e 1849 1906
e 1849 1907
e 1849 1908
e 1849 1909
e 1849 1910
e 1849 1911
e 1849 1912
e 1849 1913
e 1849 1914
e 1849 1915
e 1849 1916
e 1849 1917
e 1849 1918
e 1919 1920
e 1919 1921
e 1919 1922
e 1919 1923
e 1919 1924
e 1919 1925
e 1919 1926
e 1919 1927
e 1919 1928
e 1919 1929
e 1919 1930
e 1919 1931
e 1919 1932
e 1919 1933
e 1919 1934
e 1919 1935
e 1919 1936
e 1937 1938
e 1937 1939
e 1937 1940
e 1937 1941
e 1937 1942
e 1937 1943
e 1937 1944
e 1937 1945
e 1937 1946
e 1937 1947
e 1937 1948
e 1937 1949
e 1937 1950
e 1937 1951
e 1937 1952
e 1937 1953
e 1937 1954
e 1937 1955
e 1937 1956
e 1937 1957
e 1937 1958
e 1937 1959
e 1937 1960
e 1937 1961
e 1937 1962
e 1937 1963
e 1937 1964
e 1937 1965
e 1937 1966
e 1937 1967
e 1937 1968
e 1937 1969
e 1937 1970
e 1937 1971
e 1937 1972
e 1937 1973
e 1937 1974
e 1937 1975
e 1937 1976
e 1937 1977
e 1937 1978
e 1937 1979
e 1937 1980
e 1937 1981
e 1937 1982
e 1937 1983
e 1937 1984
e 1937 1985
e 1937 1986
e 1937 1987
e 1937 1988
e 1937 1989
e 1937 1990
e 1937 1991
e 1937 1992
e 1937 1993
e 1937 1994
e 1995 1996
e 1995 1997
e 1995 1998
e 1995 1999
e 1995 2000
e 1995 2001
e 1995 2002
e 1995 2003
e 1995 2004
e 1995 2005
e 1995 2006
e 1995 2007
e 1995 2008
e 1995 2009
e 1995 2010
e 1995 2011
e 1995 2012
e 1995 2013
e 1995 2014
e 1995 2015
e 1995 2016
e 1995 2017
e 1995 2018
e 1995 2019
e 1995 2020
e 1995 2021
e 1995 2022
e 1995 2023
e 1995 2024
e 1995 2025
e 1995 2026
e 1995 2027
e 1995 2028
e 1995 2029
e 1995 2030
e 1995 2031
e 1995 2032
e 1995 2033
e 1995 2034
e 1995 2035
e 1995 2036
e 1995 2037
e 1995 2038
e 1995 2039
e 1995 2040
e 1995 2041
e 1995 2042
e 1995 2043
e 1995 2044
e 1995 2045
e 1995 2046
e 1995 2047
e 1995 2048
e 1995 2049
e 1995 2050
e 1995 2051
e 1995 2052
e 1995 2053
e 1995 2054
e 1995 2055
e 2056 2057
e 2056 2058
e 2056 2059
e 2056 2060
e 2056 2061
e 2056 2062
e 2056 2063
e 2056 2064
e 2056 2065
e 2056 2066
e 2056 2067
e 2056 2068
e 2056 2069
e 2056 2070
e 2056 2071
e 2056 2072
e 2056 2073
e 2056 2074
e 2056 2075
e 2056 2076
e 2056 2077
e 2056 2078
e 2056 2079
e 2056 2080
e 2056 2081
e 2056 2082
e 2056 2083
e 2056 2084
e 2056 2085
e 2056 2086
e 2056 2087
e 2056 2088
e 2056 2089
e 2056 2090
e 2056 2091
e 2056 2092
e 2056 2093
e 2056 2094
e 2056 2095
e 2056 2096
e 2056 2097
e 2056 2098
e 2056 2099
e 2056 2100
e 2056 2101
e 2056 2102
e 2056 2103
e 2056 2104
e 2056 2105
e 2056 2106
e 2056 2107
e 2056 2108
e 2056 2109
e 2056 2110
e 2056 2111
e 2056 2112
e 2056 2113
e 2056 2114
e 2056 2115
e 2056 2116
e 2117 2118
e 2117 2119
e 2117 2120
e 2117 2121
e 2117 2122
e 2117 2123
e 2117 2124
e 2117 2125
e 2117 2126
e 2117 2127
e 2117 2128
e 2117 2129
e 2117 2130
e 2117 2131
e 2117 2132
e 2117 2133
e 2117 2134
e 2117 2135
e 2117 2136
e 2117 2137
e 2117 2138
e 2117 2139
e 2117 2140
e 2117 2141
e 2117 2142
e 2117 2143
e 2117 2144
e 2117 2145
e 2117 2146
e 2117 2147
e 2117 2148
e 2117 2149
e 2150 2151
e 2150 2152
e 2150 2153
e 2150 2154
e 2150 2155
e 2150 2156
e 2150 2157
e 2150 2158
e 2150 2159
e 2150 2160
e 2150 2161
e 2150 2162
e 2150 2163
e 2150 2164
e 2150 2165
e 2150 2166
e 2150 2167
e 2150 2168
e 2150 2169
e 2150 2170
e 2150 2171
e 2150 2172
e 2150 2173
e 2150 2174
e 2150 2175
e 2150 2176
e 2150 2177
e 2150 2178
e 2150 2179
e 2180 2181
e 2180 2182
e 2180 2183
e 2180 2184
e 2180 2185
e 2180 2186
e 2180 2187
e 2180 2188
e 2180 2189
e 2180 2190
e 2180 2191
e 2180 2192
e 2180 2193
e 2194 2195
e 2194 2196
e 2194 2197
e 2194 2198
e 2194 2199
e 2194 2200
e 2194 2201
e 2194 2202
e 2194 2203
e 2194 2204
e 2194 2205
e 2194 2206
e 2194 2207
e 2194 2208
e 2194 2209
e 2194 2210
e 2194 2211
e 2194 2212
e 2213 2214
e 2213 2215
e 2213 2216
e 2213 2217
e 2213 2218
e 2213 2219
e 2213 2220
e 2213 2221
e 2213 2222
e 2213 2223
e 2213 2224
e 2213 2225
e 2213 2226
e 2213 2227
e 2213 2228
e 2213 2229
e 2213 2230
e 2213 2231
e 2213 2232
e 2213 2233
e 2213 2234
e 2213 2235
e 2213 2236
e 2213 2237
e 2213 2238
e 2213 2239
e 2213 2240
e 2213 2241
e 2213 2242
e 2213 2243
e 2213 2244
e 2213 2245
e 2213 2246
e 2213 2247
e 2213 2248
e 2213 2249
e 2213 2250
e 2213 2251
e 2213 2252
e 2213 2253
e 2213 2254
e 2213 2255
e 2213 2256
e 2213 2257
e 2213 2258
e 2213 2259
e 2213 2260
e 2213 2261
e 2213 2262
e 2213 2263
e 2213 2264
e 2213 2265
e 2213 2266
e 2213 2267
e 2213 2268
e 2269 2270
e 2269 2271
e 2269 2272
e 2269 2273
e 2269 2274
e 2269 2275
e 2269 2276
e 2269 2277
e 2269 2278
e 2269 2279
e 2269 2280
e 2269 2281
e 2269 2282
e 2269 2283
e 2269 2284
e 2269 2285
e 2269 2286
e 2269 2287
e 2269 2288
e 2269 2289
e 2269 2290
e 2269 2291
e 2269 2292
e 2269 2293
e 2269 2294
e 2269 2295
e 2269 2296
e 2269 2297
e 2269 2298
e 2269 2299
e 2269 2300
e 2269 2301
e 2269 2302
e 2269 2303
e 2269 2304
e 2269 2305
e 2269 2306
e 2269 2307
e 2269 2308
e 2269 2309
e 2269 2310
e 2269 2311
e 2269 2312
e 2269 2313
e 2269 2314
e 2269 2315
e 2269 2316
e 2269 2317
e 2269 2318
e 2269 2319
e 2269 2320
e 2269 2321
e 2269 2322
e 2269 2323
e 2269 2324
e 2269 2325
e 2269 2326
e 2269 2327
e 2328 2329
e 2328 2330
e 2328 2331
e 2328 2332
e 2328 2333
e 2328 2334
e 2328 2335
e 2328 2336
e 2328 2337
e 2328 2338
e 2328 2339
e 2328 2340
e 2328 2341
e 2328 2342
e 2328 2343
e 2328 2344
e 2328 2345
e 2328 2346
e 2328 2347
e 2328 2348
e 2328 2349
e 2328 2350
e 2351 2352
e 2351 2353
e 2351 2354
e 2351 2355
e 2351 2356
e 2351 2357
e 2351 2358
e 2351 2359
e 2351 2360
e 2351 2361
e 2351 2362
e 2351 2363
e 2351 2364
e 2351 2365
e 2351 2366
e 2351 2367
e 2351 2368
e 2351 2369
e 2370 2371
e 2370 2372
e 2370 2373
e 2370 2374
e 2370 2375
e 2370 2376
e 2370 2377
e 2370 2378
e 2370 2379
e 2370 2380
e 2370 2381
e 2370 2382
e 2370 2383
e 2370 2384
e 2370 2385
e 2370 2386
e 2370 2387
e 2370 2388
e 2370 2389
e 2370 2390
e 2370 2391
e 2370 2392
e 2370 2393
e 2370 2394
e 2370 2395
e 2370 2396
e 2370 2397
e 2370 2398
e 2370 2399
e 2370 2400
e 2370 2401
e 2370 2402
e 2370 2403
e 2370 2404
e 2370 2405
e 2370 2406
e 2370 2407
e 2370 2408
e 2370 2409
e 2370 2410
e 2370 2411
e 2370 2412
e 2370 2413
e 2370 2414
e 2370 2415
e 2370 2416
e 2370 2417
e 2370 2418
e 2419 2420
e 2419 2421
e 2419 2422
e 2419 2423
e 2419 2424
e 2419 2425
e 2419 2426
e 2419 2427
e 2419 2428
e 2419 2429
e 2419 2430
e 2419 2431
e 2419 2432
e 2419 2433
e 2419 2434
e 2419 2435
e 2419 2436
e 2419 2437
e 2419 2438
e 2419 2439
e 2419 2440
e 2441 2442
e 2441 2443
e 2441 2444
e 2441 2445
e 2441 2446
e 2441 2447
e 2441 2448
e 2441 2449
e 2441 2450
e 2441 2451
e 2441 2452
e 2441 2453
e 2441 2454
e 2441 2455
e 2441 2456
e 2441 2457
e 2441 2458
e 2441 2459
e 2441 2460
e 2441 2461
e 2441 2462
e 2441 2463
e 2441 2464
e 2441 2465
e 2441 2466
e 2467 2468
e 2467 2469
e 2467 2470
e 2467 2471
e 2467 2472
e 2467 2473
e 2467 2474
e 2467 2475
e 2467 2476
e 2467 2477
e 2467 2478
e 2467 2479
e 2467 2480
e 2467 2481
e 2467 2482
e 2467 2483
e 2467 2484
e 2467 2485
e 2467 2486
e 2467 2487
e 2467 2488
e 2467 2489
e 2467 2490
e 2467 2491
e 2492 2493
e 2492 2494
e 2492 2495
e 2492 2496
e 2492 2497
e 2492 2498
e 2492 2499
e 2492 2500
e 2492 2501
e 2492 2502
e 2492 2503
e 2492 2504
e 2492 2505
e 2492 2506
e 2492 2507
e 2492 2508
e 2492 2509
e 2492 2510
e 2492 2511
e 2492 2512
e 2492 2513
e 2492 2514
e 2492 2515
e 2492 2516
e 2492 2517
e 2492 2518
e 2492 2519
e 2492 2520
e 2492 2521
e 2492 2522
e 2492 2523
e 2492 2524
e 2492 2525
e 2492 2526
e 2492 2527
e 2492 2528
e 2492 2529
e 2492 2530
e 2492 2531
e 2492 2532
e 2492 2533
e 2492 2534
e 2492 2535
e 2492 2536
e 2492 2537
e 2492 2538
e 2492 2539
e 2492 2540
e 2492 2541
e 2492 2542
e 2492 2543
e 2492 2544
e 2492 2545
e 2492 2546
e 2492 2547
e 2492 2548
e 2492 2549
e 2492 2550
e 2492 2551
e 2492 2552
e 2492 2553
e 2492 2554
e 2492 2555
e 2556 2557
e 2556 2558
e 2556 2559
e 2556 2560
e 2556 2561
e 2556 2562
e 2556 2563
e 2556 2564
e 2556 2565
e 2556 2566
e 2556 2567
e 2556 2568
e 2556 2569
e 2556 2570
e 2556 2571
e 2572 2573
e 2572 2574
e 2572 2575
e 2572 2576
e 2572 2577
e 2572 2578
e 2572 2579
e 2572 2580
e 2572 2581
e 2572 2582
e 2572 2583
e 2572 2584
e 2572 2585
e 2572 2586
e 2572 2587
e 2572 2588
e 2572 2589
e 2572 2590
e 2572 2591
e 2572 2592
e 2572 2593
e 2572 2594
e 2572 2595
e 2572 2596
e 2572 2597
e 2598 2599
e 2598 2600
e 2598 2601
e 2598 2602
e 2598 2603
e 2598 2604
e 2598 2605
e 2598 2606
e 2598 2607
e 2598 2608
e 2598 2609
e 2598 2610
e 2598 2611
e 2598 2612
e 2598 2613
e 2598 2614
e 2598 2615
e 2598 2616
e 2598 2617
e 2598 2618
e 2598 2619
e 2598 2620
e 2598 2621
e 2598 2622
e 2598 2623
e 2598 2624
e 2598 2625
e 2598 2626
e 2598 2627
e 2598 2628
e 2598 2629
e 2598 2630
e 2598 2631
e 2598 2632
e 2598 2633
e 2598 2634
e 2598 2635
e 2598 2636
e 2598 2637
e 2598 2638
e 2598 2639
e 2598 2640
e 2598 2641
e 2598 2642
e 2598 2643
e 2598 2644
e 2598 2645
e 2598 2646
e 2598 2647
e 2598 2648
e 2598 2649
e 2598 2650
e 2598 2651
e 2598 2652
e 2598 2653
e 2598 2654
e 2598 2655
e 2598 2656
e 2598 2657
e 2598 2658
e 2598 2659
e 2598 2660
e 2598 2661
e 2598 2662
e 2598 2663
e 2598 2664
e 2598 2665
e 2598 2666
e 2598 2667
e 2668 2669
e 2668 2670
e 2668 2671
e 2668 2672
e 2668 2673
e 2668 2674
e 2668 2675
e 2668 2676
e 2668 2677
e 2668 2678
e 2668 2679
e 2680 2681
e 2680 2682
e 2680 2683
e 2680 2684
e 2680 2685
e 2680 2686
e 2680 2687
e 2680 2688
e 2680 2689
e 2680 2690
e 2680 2691
e 2680 2692
e 2680 2693
e 2680 2694
e 2680 2695
e 2680 2696
e 2680 2697
e 2680 2698
e 2680 2699
e 2680 2700
e 2680 2701
e 2680 2702
e 2680 2703
e 2680 2704
e 2680 2705
e 2680 2706
e 2680 2707
e 2680 2708
e 2680 2709
e 2680 2710
e 2680 2711
e 2680 2712
e 2680 2713
e 2680 2714
e 2680 2715
e 2680 2716
e 2680 2717
e 2680 2718
e 2680 2719
e 2680 2720
e 2680 2721
e 2680 2722
e 2723 2724
e 2723 2725
e 2723 2726
e 2723 2727
e 2723 2728
e 2723 2729
e 2723 2730
e 2723 2731
e 2723 2732
e 2723 2733
e 2723 2734
e 2723 2735
e 2723 2736
e 2723 2737
e 2723 2738
e 2723 2739
e 2723 2740
e 2723 2741
e 2723 2742
e 2723 2743
e 2723 2744
e 2723 2745
e 2723 2746
e 2723 2747
e 2723 2748
e 2723 2749
e 2723 2750
e 2723 2751
e 2723 2752
e 2723 2753
e 2723 2754
e 2723 2755
e 2723 2756
e 2723 2757
e 2723 2758
e 2723 2759
e 2723 2760
e 2723 2761
e 2723 2762
e 2723 2763
e 2723 2764
e 2723 2765
e 2723 2766
e 2723 2767
e 2723 2768
e 2723 2769
e 2723 2770
e 2723 2771
e 2723 2772
e 2723 2773
e 2723 2774
e 2723 2775
e 2723 2776
e 2723 2777
e 2723 2778
e 2723 2779
e 2723 2780
e 2723 2781
e 2723 2782
e 2723 2783
e 2723 2784
e 2723 2785
e 2723 2786
e 2723 2787
e 2723 2788
e 2723 2789
e 2790 2791
e 2790 2792
e 2790 2793
e 2790 2794
e 2790 2795
e 2790 2796
e 2790 2797
e 2790 2798
e 2790 2799
e 2790 2800
e 2790 2801
e 2790 2802
e 2790 2803
e 2790 2804
e 2790 2805
e 2790 2806
e 2790 2807
e 2790 2808
e 2790 2809
e 2790 2810
e 2790 2811
e 2790 2812
e 2790 2813
e 2814 2815
e 2814 2816
e 2814 2817
e 2814 2818
e 2814 2819
e 2814 2820
e 2814 2821
e 2814 2822
e 2814 2823
e 2814 2824
e 2814 2825
e 2814 2826
e 2814 2827
e 2814 2828
e 2814 2829
e 2814 2830
e 2814 2831
e 2814 2832
e 2814 2833
e 2814 2834
e 2814 2835
e 2814 2836
e 2814 2837
e 2814 2838
e 2814 2839
e 2814 2840
e 2814 2841
e 2814 2842
e 2814 2843
e 2814 2844
e 2814 2845
e 2814 2846
e 2814 2847
e 2814 2848
e 2814 2849
e 2814 2850
e 2814 2851
e 2814 2852
e 2814 2853
e 2814 2854
e 2814 2855
e 2814 2856
e 2814 2857
e 2814 2858
e 2814 2859
e 2814 2860
e 2814 2861
e 2814 2862
e 2814 2863
e 2814 2864
e 2814 2865
e 2814 2866
e 2814 2867
e 2814 2868
e 2814 2869
e 2814 2870
e 2814 2871
e 2814 2872
e 2814 2873
e 2814 2874
e 2814 2875
e 2814 2876
e 2814 2877
e 2814 2878
e 2814 2879
e 2814 2880
e 2814 2881
e 2882 2883
e 2882 2884
e 2882 2885
e 2882 2886
e 2882 2887
e 2882 2888
e 2882 2889
e 2882 2890
e 2882 2891
e 2882 2892
e 2882 2893
e 2882 2894
e 2882 2895
e 2882 2896
e 2882 2897
e 2882 2898
e 2882 2899
e 2882 2900
e 2882 2901
e 2882 2902
e 2882 2903
e 2882 2904
e 2882 2905
e 2882 2906
e 2882 2907
e 2882 2908
e 2882 2909
e 2882 2910
e 2882 2911
e 2882 2912
e 2882 2913
e 2882 2914
e 2882 2915
e 2882 2916
e 2882 2917
e 2882 2918
e 2882 2919
e 2882 2920
e 2882 2921
e 2882 2922
e 2882 2923
e 2882 2924
e 2882 2925
e 2882 2926
e 2882 2927
e 2882 2928
e 2882 2929
e 2882 2930
e 2882 2931
e 2882 2932
e 2882 2933
e 2882 2934
e 2882 2935
e 2882 2936
e 2882 2937
e 2882 2938
e 2882 2939
e 2940 2941
e 2940 2942
e 2940 2943
e 2940 2944
e 2940 2945
e 2940 2946
e 2940 2947
e 2940 2948
e 2940 2949
e 2940 2950
e 2951 2952
e 2951 2953
e 2951 2954
e 2951 2955
e 2951 2956
e 2951 2957
e 2951 2958
e 2951 2959
e 2951 2960
e 2951 2961
e 2951 2962
e 2951 2963
e 2951 2964
e 2951 2965
e 2951 2966
e 2951 2967
e 2951 2968
e 2951 2969
e 2951 2970
e 2951 2971
e 2951 2972
e 2951 2973
e 2951 2974
e 2951 2975
e 2951 2976
e 2951 2977
e 2951 2978
e 2951 2979
e 2951 2980
e 2951 2981
e 2951 2982
e 2951 2983
e 2951 2984
e 2951 2985
e 2951 2986
e 2951 2987
e 2951 2988
e 2951 2989
e 2951 2990
e 2951 2991
e 2951 2992
e 2951 2993
e 2951 2994
e 2951 2995
e 2951 2996
e 2951 2997
e 2951 2998
e 2951 2999
e 2951 3000
e 2951 3001
e 2951 3002
e 2951 3003
e 3004 3005
e 3004 3006
e 3004 3007
e 3004 3008
e 3004 3009
e 3004 3010
e 3004 3011
e 3004 3012
e 3004 3013
e 3004 3014
e 3004 3015
e 3004 3016
e 3004 3017
e 3004 3018
e 3004 3019
e 3004 3020
e 3004 3021
e 3004 3022
e 3004 3023
e 3004 3024
e 3004 3025
e 3004 3026
e 3004 3027
e 3004 3028
e 3004 3029
e 3004 3030
e 3004 3031
e 3004 3032
e 3004 3033
e 3004 3034
e 3004 3035
e 3004 3036
e 3004 3037
e 3004 3038
e 3004 3039
e 3004 3040
e 3004 3041
e 3004 3042
e 3004 3043
e 3004 3044
e 3004 3045
e 3004 3046
e 3004 3047
e 3004 3048
e 3004 3049
e 3004 3050
e 3004 3051
e 3004 3052
e 3004 3053
e 3004 3054
e 3004 3055
e 3004 3056
e 3004 3057
e 3004 3058
e 3004 3059
e 3004 3060
e 3004 3061
e 3062 3063
e 3062 3064
e 3062 3065
e 3062 3066
e 3062 3067
e 3062 3068
e 3062 3069
e 3062 3070
e 3062 3071
e 3062 3072
e 3062 3073
e 3062 3074
e 3062 3075
e 3062 3076
e 3062 3077
e 3062 3078
e 3062 3079
e 3062 3080
e 3062 3081
e 3062 3082
e 3062 3083
e 3062 3084
e 3062 3085
e 3062 3086
e 3062 3087
e 3062 3088
e 3062 3089
e 3062 3090
e 3062 3091
e 3062 3092
e 3062 3093
e 3062 3094
e 3062 3095
e 3062 3096
e 3062 3097
e 3062 3098
e 3099 3100
e 3099 3101
e 3099 3102
e 3099 3103
e 3099 3104
e 3099 3105
e 3099 3106
e 3099 3107
e 3099 3108
e 3099 3109
e 3099 3110
e 3099 3111
e 3099 3112
e 3099 3113
e 3099 3114
e 3099 3115
e 3099 3116
e 3099 3117
e 3099 3118
e 3099 3119
e 3099 3120
e 3099 3121
e 3099 3122
e 3099 3123
e 3099 3124
e 3099 3125
e 3099 3126
e 3099 3127
e 3099 3128
e 3129 3130
e 3129 3131
e 3129 3132
e 3129 3133
e 3129 3134
e 3129 3135
e 3129 3136
e 3129 3137
e 3129 3138
e 3129 3139
e 3129 3140
e 3129 3141
e 3129 3142
e 3129 3143
e 3129 3144
e 3129 3145
e 3129 3146
e 3129 3147
e 3129 3148
e 3129 3149
e 3129 3150
e 3129 3151
e 3129 3152
e 3129 3153
e 3129 3154
e 3129 3155
e 3129 3156
e 3129 3157
e 3129 3158
e 3129 3159
e 3129 3160
e 3161 3162
e 3161 3163
e 3161 3164
e 3161 3165
e 3161 3166
e 3161 3167
e 3161 3168
e 3161 3169
e 3161 3170
e 3161 3171
e 3161 3172
e 3161 3173
e 3161 3174
e 3161 3175
e 3161 3176
e 3161 3177
e 3161 3178
e 3161 3179
e 3161 3180
e 3161 3181
e 3161 3182
e 3161 3183
e 3161 3184
e 3161 3185
e 3161 3186
e 3161 3187
e 3161 3188
e 3161 3189
e 3161 3190
e 3161 3191
e 3161 3192
e 3161 3193
e 3161 3194
e 3161 3195
e 3161 3196
e 3161 3197
e 3161 3198
e 3199 3200
e 3199 3201
e 3199 3202
e 3199 3203
e 3199 3204
e 3199 3205
e 3199 3206
e 3199 3207
e 3199 3208
e 3199 3209
e 3199 3210
e 3199 3211
e 3199 3212
e 3199 3213
e 3199 3214
e 3199 3215
e 3199 3216
e 3199 3217
e 3199 3218
e 3199 3219
e 3199 3220
e 3199 3221
e 3199 3222
e 3199 3223
e 3199 3224
e 3199 3225
e 3199 3226
e 3199 3227
e 3199 3228
e 3199 3229
e 3199 3230
e 3199 3231
e 3199 3232
e 3199 3233
e 3199 3234
e 3199 3235
e 3199 3236
e 3199 3237
e 3199 3238
e 3199 3239
e 3199 3240
e 3199 3241
e 3199 3242
e 3199 3243
e 3199 3244
e 3199 3245
e 3199 3246
e 3199 3247
e 3199 3248
e 3199 3249
e 3199 3250
e 3199 3251
e 3199 3252
e 3199 3253
e 3199 3254
e 3199 3255
e 3199 3256
e 3257 3258
e 3257 3259
e 3257 3260
e 3257 3261
e 3257 3262
e 3257 3263
e 3257 3264
e 3257 3265
e 3257 3266
e 3257 3267
e 3257 3268
e 3257 3269
e 3257 3270
e 3257 3271
e 3257 3272
e 3257 3273
e 3257 3274
e 3257 3275
e 3257 3276
e 3257 3277
e 3257 3278
e 3257 3279
e 3257 3280
e 3257 3281
e 3257 3282
e 3257 3283
e 3257 3284
e 3257 3285
e 3257 3286
e 3257 3287
e 3257 3288
e 3257 3289
e 3257 3290
e 3257 3291
e 3257 3292
e 3257 3293
e 3257 3294
e 3257 3295
e 3257 3296
e 3257 3297
e 3257 3298
e 3257 3299
e 3257 3300
e 3257 3301
e 3257 3302
e 3257 3303
e 3257 3304
e 3257 3305
e 3306 3307
e 3306 3308
e 3306 3309
e 3306 3310
e 3306 3311
e 3306 3312
e 3306 3313
e 3306 3314
e 3306 3315
e 3306 3316
e 3306 3317
e 3306 3318
e 3306 3319
e 3306 3320
e 3306 3321
e 3306 3322
e 3306 3323
e 3306 3324
e 3306 3325
e 3306 3326
e 3306 3327
e 3306 3328
e 3306 3329
e 3306 3330
e 3306 3331
e 3306 3332
e 3306 3333
e 3306 3334
e 3306 3335
e 3306 3336
e 3306 3337
e 3306 3338
e 3306 3339
e 3306 3340
e 3341 3342
e 3341 3343
e 3341 3344
e 3341 3345
e 3341 3346
e 3341 3347
e 3341 3348
e 3341 3349
e 3341 3350
e 3341 3351
e 3341 3352
e 3341 3353
e 3341 3354
e 3341 3355
e 3341 3356
e 3341 3357
e 3341 3358
e 3341 3359
e 3341 3360
e 3341 3361
e 3341 3362
e 3341 3363
e 3341 3364
e 3341 3365
e 3341 3366
e 3341 3367
e 3341 3368
e 3341 3369
e 3341 3370
e 3341 3371
e 3341 3372
e 3341 3373
e 3341 3374
e 3375 3376
e 3375 3377
e 3375 3378
e 3375 3379
e 3375 3380
e 3375 3381
e 3375 3382
e 3375 3383
e 3375 3384
e 3375 3385
e 3375 3386
e 3375 3387
e 3375 3388
e 3375 3389
e 3375 3390
e 3375 3391
e 3375 3392
e 3375 3393
e 3375 3394
e 3375 3395
e 3375 3396
e 3375 3397
e 3375 3398
e 3375 3399
e 3375 3400
e 3375 3401
e 3375 3402
e 3375 3403
e 3375 3404
e 3375 3405
e 3375 3406
e 3375 3407
e 3408 3409
e 3408 3410
e 3408 3411
e 3408 3412
e 3408 3413
e 3408 3414
e 3408 3415
e 3408 3416
e 3408 3417
e 3408 3418
e 3408 3419
e 3408 3420
e 3408 3421
e 3408 3422
e 3408 3423
e 3408 3424
e 3408 3425
e 3408 3426
e 3408 3427
e 3408 3428
e 3408 3429
e 3408 3430
e 3408 3431
e 3408 3432
e 3408 3433
e 3408 3434
e 3408 3435
e 3408 3436
e 3408 3437
e 3408 3438
e 3408 3439
e 3408 3440
e 3408 3441
e 3408 3442
e 3408 3443
e 3408 3444
e 3408 3445
e 3408 3446
e 3408 3447
e 3408 3448
e 3408 3449
e 3408 3450
e 3408 3451
e 3408 3452
e 3408 3453
e 3408 3454
e 3408 3455
e 3408 3456
e 3408 3457
e 3408 3458
e 3408 3459
e 3408 3460
e 3408 3461
e 3408 3462
e 3408 3463
e 3408 3464
e 3408 3465
e 3408 3466
e 3408 3467
e 3408 3468
e 3408 3469
e 3408 3470
e 3408 3471
e 3408 3472
e 3408 3473
e 3408 3474
e 3408 3475
e 3408 3476
e 3408 3477
